NAME : X_26_seed_123_id_14
TYPE : CVRP
DIMENSION : 219
EDGE_WEIGHT_TYPE : EUC_2D
CAPACITY : 3
NODE_COORD_SECTION
1	0	0
2	292	644
3	986	361
4	261	755
5	879	255
6	983	304
7	538	818
8	478	173
9	213	551
10	274	39
11	578	386
12	653	469
13	318	773
14	214	229
15	354	825
16	329	808
17	530	467
18	186	936
19	56	888
20	942	512
21	349	579
22	182	556
23	617	96
24	231	387
25	713	216
26	318	550
27	469	858
28	861	792
29	446	509
30	138	568
31	393	670
32	308	887
33	211	130
34	564	339
35	711	935
36	226	419
37	455	986
38	223	773
39	736	615
40	771	593
41	350	296
42	370	21
43	700	677
44	355	199
45	886	885
46	878	628
47	768	579
48	32	329
49	187	349
50	319	965
51	716	170
52	991	24
53	878	833
54	488	596
55	852	531
56	452	696
57	888	159
58	11	689
59	997	305
60	932	173
61	431	730
62	201	282
63	886	757
64	881	182
65	662	34
66	670	688
67	828	167
68	407	540
69	994	143
70	214	972
71	665	821
72	897	455
73	259	712
74	770	883
75	926	457
76	560	706
77	309	197
78	743	278
79	626	482
80	310	69
81	556	75
82	350	547
83	780	652
84	281	577
85	626	940
86	114	789
87	264	603
88	751	104
89	201	317
90	881	981
91	81	123
92	17	700
93	347	860
94	986	714
95	316	689
96	195	292
97	555	346
98	615	514
99	410	406
100	628	577
101	938	194
102	103	312
103	349	588
104	903	466
105	492	946
106	728	71
107	492	931
108	492	318
109	412	864
110	217	107
111	826	277
112	580	930
113	640	483
114	986	944
115	660	522
116	65	507
117	833	191
118	266	392
119	129	483
120	259	334
121	721	602
122	375	888
123	93	234
124	71	630
125	850	595
126	49	427
127	286	732
128	465	489
129	340	32
130	649	844
131	958	447
132	909	16
133	893	821
134	465	800
135	267	886
136	575	673
137	712	57
138	94	351
139	125	833
140	312	262
141	691	682
142	1	444
143	348	401
144	536	761
145	38	669
146	45	948
147	699	985
148	699	378
149	720	134
150	990	895
151	906	992
152	206	879
153	18	33
154	107	431
155	545	79
156	667	508
157	413	936
158	294	832
159	212	385
160	297	374
161	106	55
162	617	459
163	40	460
164	948	741
165	952	620
166	13	777
167	550	222
168	461	499
169	257	681
170	688	498
171	676	74
172	548	223
173	595	887
174	395	966
175	389	109
176	373	254
177	229	227
178	198	671
179	480	689
180	419	283
181	182	461
182	131	945
183	395	913
184	50	329
185	459	619
186	572	449
187	803	829
188	393	317
189	363	29
190	571	336
191	277	612
192	376	203
193	544	287
194	79	982
195	25	142
196	94	164
197	329	763
198	368	212
199	166	574
200	310	931
201	87	966
202	343	531
203	4	900
204	948	335
205	432	915
206	279	875
207	259	260
208	648	944
209	310	786
210	674	698
211	747	7
212	603	791
213	416	915
214	346	276
215	856	998
216	203	120
217	254	40
218	858	393
219	700	128
DEMAND_SECTION
1	0
2	1
3	1
4	1
5	1
6	1
7	1
8	1
9	1
10	1
11	1
12	1
13	1
14	1
15	1
16	1
17	1
18	1
19	1
20	1
21	1
22	1
23	1
24	1
25	1
26	1
27	1
28	1
29	1
30	1
31	1
32	1
33	1
34	1
35	1
36	1
37	1
38	1
39	1
40	1
41	1
42	1
43	1
44	1
45	1
46	1
47	1
48	1
49	1
50	1
51	1
52	1
53	1
54	1
55	1
56	1
57	1
58	1
59	1
60	1
61	1
62	1
63	1
64	1
65	1
66	1
67	1
68	1
69	1
70	1
71	1
72	1
73	1
74	1
75	1
76	1
77	1
78	1
79	1
80	1
81	1
82	1
83	1
84	1
85	1
86	1
87	1
88	1
89	1
90	1
91	1
92	1
93	1
94	1
95	1
96	1
97	1
98	1
99	1
100	1
101	1
102	1
103	1
104	1
105	1
106	1
107	1
108	1
109	1
110	1
111	1
112	1
113	1
114	1
115	1
116	1
117	1
118	1
119	1
120	1
121	1
122	1
123	1
124	1
125	1
126	1
127	1
128	1
129	1
130	1
131	1
132	1
133	1
134	1
135	1
136	1
137	1
138	1
139	1
140	1
141	1
142	1
143	1
144	1
145	1
146	1
147	1
148	1
149	1
150	1
151	1
152	1
153	1
154	1
155	1
156	1
157	1
158	1
159	1
160	1
161	1
162	1
163	1
164	1
165	1
166	1
167	1
168	1
169	1
170	1
171	1
172	1
173	1
174	1
175	1
176	1
177	1
178	1
179	1
180	1
181	1
182	1
183	1
184	1
185	1
186	1
187	1
188	1
189	1
190	1
191	1
192	1
193	1
194	1
195	1
196	1
197	1
198	1
199	1
200	1
201	1
202	1
203	1
204	1
205	1
206	1
207	1
208	1
209	1
210	1
211	1
212	1
213	1
214	1
215	1
216	1
217	1
218	1
219	1
DEPOT_SECTION
1
-1
EOF
